* ENCODING=ISO-8859-1
NAME          
ROWS
 N  obj     
 L  Phi     
 L  Lambda  
 L  V1      
 L  V2      
 L  V3      
 L  V4      
 L  V5      
 L  V6      
 L  V8      
 L  V9      
 L  V10     
 L  V11     
 L  V12     
 L  V13     
 L  V14     
 L  V15     
 L  V16     
 L  V17     
 L  V18     
 L  V19     
 L  V20     
 L  V21     
 L  V22     
 L  V23     
 L  V24     
 L  V25     
 L  A2-1    
 L  A1-2    
 L  A3-1    
 L  A1-3    
 L  A4-2    
 L  A2-4    
 L  A5-1    
 L  A1-5    
 L  A6-5    
 L  A5-6    
 L  A8-2    
 L  A2-8    
 L  A9-1    
 L  A1-9    
 L  A11-10  
 L  A10-11  
 L  A13-3   
 L  A3-13   
 L  A14-3   
 L  A3-14   
 L  A15-5   
 L  A5-15   
 L  A17-13  
 L  A13-17  
 L  A18-13  
 L  A13-18  
 L  A19-9   
 L  A9-19   
 L  A20-19  
 L  A19-20  
 L  A21-3   
 L  A3-21   
 L  A22-13  
 L  A13-22  
 L  A23-19  
 L  A19-23  
 L  A25-19  
 L  A19-25  
COLUMNS
    MARK0000  'MARKER'                 'INTORG'
    a_1       obj                             1
    a_1       V1                              1
    a_1       A2-1                            1
    a_1       A1-2                           -1
    a_1       A3-1                            1
    a_1       A1-3                           -1
    a_1       A5-1                            1
    a_1       A1-5                           -1
    a_1       A9-1                            1
    a_1       A1-9                           -1
    a_2       obj                             1
    a_2       V2                              1
    a_2       A2-1                           -1
    a_2       A1-2                            1
    a_2       A4-2                            1
    a_2       A2-4                           -1
    a_2       A8-2                            1
    a_2       A2-8                           -1
    a_3       obj                             1
    a_3       V3                              1
    a_3       A3-1                           -1
    a_3       A1-3                            1
    a_3       A13-3                           1
    a_3       A3-13                          -1
    a_3       A14-3                           1
    a_3       A3-14                          -1
    a_3       A21-3                           1
    a_3       A3-21                          -1
    a_4       obj                             1
    a_4       V4                              1
    a_4       A4-2                           -1
    a_4       A2-4                            1
    a_5       obj                             1
    a_5       V5                              1
    a_5       A5-1                           -1
    a_5       A1-5                            1
    a_5       A6-5                            1
    a_5       A5-6                           -1
    a_5       A15-5                           1
    a_5       A5-15                          -1
    a_6       obj                             1
    a_6       V6                              1
    a_6       A6-5                           -1
    a_6       A5-6                            1
    a_8       obj                             1
    a_8       V8                              1
    a_8       A8-2                           -1
    a_8       A2-8                            1
    a_9       obj                             1
    a_9       V9                              1
    a_9       A9-1                           -1
    a_9       A1-9                            1
    a_9       A19-9                           1
    a_9       A9-19                          -1
    a_10      obj                             1
    a_10      V10                             1
    a_10      A11-10                          1
    a_10      A10-11                         -1
    a_11      obj                             1
    a_11      V11                             1
    a_11      A11-10                         -1
    a_11      A10-11                          1
    a_12      obj                             1
    a_12      V12                             1
    a_13      obj                             1
    a_13      V13                             1
    a_13      A13-3                          -1
    a_13      A3-13                           1
    a_13      A17-13                          1
    a_13      A13-17                         -1
    a_13      A18-13                          1
    a_13      A13-18                         -1
    a_13      A22-13                          1
    a_13      A13-22                         -1
    a_14      obj                             1
    a_14      V14                             1
    a_14      A14-3                          -1
    a_14      A3-14                           1
    a_15      obj                             1
    a_15      V15                             1
    a_15      A15-5                          -1
    a_15      A5-15                           1
    a_16      obj                             1
    a_16      V16                             1
    a_17      obj                             1
    a_17      V17                             1
    a_17      A17-13                         -1
    a_17      A13-17                          1
    a_18      obj                             1
    a_18      V18                             1
    a_18      A18-13                         -1
    a_18      A13-18                          1
    a_19      obj                             1
    a_19      V19                             1
    a_19      A19-9                          -1
    a_19      A9-19                           1
    a_19      A20-19                          1
    a_19      A19-20                         -1
    a_19      A23-19                          1
    a_19      A19-23                         -1
    a_19      A25-19                          1
    a_19      A19-25                         -1
    a_20      obj                             1
    a_20      V20                             1
    a_20      A20-19                         -1
    a_20      A19-20                          1
    a_21      obj                             1
    a_21      V21                             1
    a_21      A21-3                          -1
    a_21      A3-21                           1
    a_22      obj                             1
    a_22      V22                             1
    a_22      A22-13                         -1
    a_22      A13-22                          1
    a_23      obj                             1
    a_23      V23                             1
    a_23      A23-19                         -1
    a_23      A19-23                          1
    a_24      obj                             1
    a_24      V24                             1
    a_25      obj                             1
    a_25      V25                             1
    a_25      A25-19                         -1
    a_25      A19-25                          1
    y_1       Phi                             1
    y_1       V1                              1
    y_2       Phi                             1
    y_2       V2                              1
    y_3       Phi                             1
    y_3       V3                              1
    y_4       Phi                             1
    y_4       V4                              1
    y_5       Phi                             1
    y_5       V5                              1
    y_6       Phi                             1
    y_6       V6                              1
    y_8       Phi                             1
    y_8       V8                              1
    y_9       Phi                             1
    y_9       V9                              1
    y_10      Phi                             1
    y_10      V10                             1
    y_11      Phi                             1
    y_11      V11                             1
    y_12      Phi                             1
    y_12      V12                             1
    y_13      Phi                             1
    y_13      V13                             1
    y_14      Phi                             1
    y_14      V14                             1
    y_15      Phi                             1
    y_15      V15                             1
    y_16      Phi                             1
    y_16      V16                             1
    y_17      Phi                             1
    y_17      V17                             1
    y_18      Phi                             1
    y_18      V18                             1
    y_19      Phi                             1
    y_19      V19                             1
    y_20      Phi                             1
    y_20      V20                             1
    y_21      Phi                             1
    y_21      V21                             1
    y_22      Phi                             1
    y_22      V22                             1
    y_23      Phi                             1
    y_23      V23                             1
    y_24      Phi                             1
    y_24      V24                             1
    y_25      Phi                             1
    y_25      V25                             1
    x_1       Lambda                          1
    x_1       A2-1                           -1
    x_1       A3-1                           -1
    x_1       A5-1                           -1
    x_1       A9-1                           -1
    x_2       Lambda                          1
    x_2       A1-2                           -1
    x_2       A4-2                           -1
    x_2       A8-2                           -1
    x_3       Lambda                          1
    x_3       A1-3                           -1
    x_3       A13-3                          -1
    x_3       A14-3                          -1
    x_3       A21-3                          -1
    x_4       Lambda                          1
    x_4       A2-4                           -1
    x_5       Lambda                          1
    x_5       A1-5                           -1
    x_5       A6-5                           -1
    x_5       A15-5                          -1
    x_6       Lambda                          1
    x_6       A5-6                           -1
    x_8       Lambda                          1
    x_8       A2-8                           -1
    x_9       Lambda                          1
    x_9       A1-9                           -1
    x_9       A19-9                          -1
    x_10      Lambda                          1
    x_10      A11-10                         -1
    x_11      Lambda                          1
    x_11      A10-11                         -1
    x_12      Lambda                          1
    x_13      Lambda                          1
    x_13      A3-13                          -1
    x_13      A17-13                         -1
    x_13      A18-13                         -1
    x_13      A22-13                         -1
    x_14      Lambda                          1
    x_14      A3-14                          -1
    x_15      Lambda                          1
    x_15      A5-15                          -1
    x_16      Lambda                          1
    x_17      Lambda                          1
    x_17      A13-17                         -1
    x_18      Lambda                          1
    x_18      A13-18                         -1
    x_19      Lambda                          1
    x_19      A9-19                          -1
    x_19      A20-19                         -1
    x_19      A23-19                         -1
    x_19      A25-19                         -1
    x_20      Lambda                          1
    x_20      A19-20                         -1
    x_21      Lambda                          1
    x_21      A3-21                          -1
    x_22      Lambda                          1
    x_22      A13-22                         -1
    x_23      Lambda                          1
    x_23      A19-23                         -1
    x_24      Lambda                          1
    x_25      Lambda                          1
    x_25      A19-25                         -1
    MARK0001  'MARKER'                 'INTEND'
RHS
    rhs       Phi                             3
    rhs       Lambda                          3
    rhs       V1                              1
    rhs       V2                              1
    rhs       V3                              1
    rhs       V4                              1
    rhs       V5                              1
    rhs       V6                              1
    rhs       V8                              1
    rhs       V9                              1
    rhs       V10                             1
    rhs       V11                             1
    rhs       V12                             1
    rhs       V13                             1
    rhs       V14                             1
    rhs       V15                             1
    rhs       V16                             1
    rhs       V17                             1
    rhs       V18                             1
    rhs       V19                             1
    rhs       V20                             1
    rhs       V21                             1
    rhs       V22                             1
    rhs       V23                             1
    rhs       V24                             1
    rhs       V25                             1
BOUNDS
 UP bnd       a_1                             1
 UP bnd       a_2                             1
 UP bnd       a_3                             1
 UP bnd       a_4                             1
 UP bnd       a_5                             1
 UP bnd       a_6                             1
 UP bnd       a_8                             1
 UP bnd       a_9                             1
 UP bnd       a_10                            1
 UP bnd       a_11                            1
 UP bnd       a_12                            1
 UP bnd       a_13                            1
 UP bnd       a_14                            1
 UP bnd       a_15                            1
 UP bnd       a_16                            1
 UP bnd       a_17                            1
 UP bnd       a_18                            1
 UP bnd       a_19                            1
 UP bnd       a_20                            1
 UP bnd       a_21                            1
 UP bnd       a_22                            1
 UP bnd       a_23                            1
 UP bnd       a_24                            1
 UP bnd       a_25                            1
 UP bnd       y_1                             1
 UP bnd       y_2                             1
 UP bnd       y_3                             1
 UP bnd       y_4                             1
 UP bnd       y_5                             1
 UP bnd       y_6                             1
 UP bnd       y_8                             1
 UP bnd       y_9                             1
 UP bnd       y_10                            1
 UP bnd       y_11                            1
 UP bnd       y_12                            1
 UP bnd       y_13                            1
 UP bnd       y_14                            1
 UP bnd       y_15                            1
 UP bnd       y_16                            1
 UP bnd       y_17                            1
 UP bnd       y_18                            1
 UP bnd       y_19                            1
 UP bnd       y_20                            1
 UP bnd       y_21                            1
 UP bnd       y_22                            1
 UP bnd       y_23                            1
 UP bnd       y_24                            1
 UP bnd       y_25                            1
 UP bnd       x_1                             1
 UP bnd       x_2                             1
 UP bnd       x_3                             1
 UP bnd       x_4                             1
 UP bnd       x_5                             1
 UP bnd       x_6                             1
 UP bnd       x_8                             1
 UP bnd       x_9                             1
 UP bnd       x_10                            1
 UP bnd       x_11                            1
 UP bnd       x_12                            1
 UP bnd       x_13                            1
 UP bnd       x_14                            1
 UP bnd       x_15                            1
 UP bnd       x_16                            1
 UP bnd       x_17                            1
 UP bnd       x_18                            1
 UP bnd       x_19                            1
 UP bnd       x_20                            1
 UP bnd       x_21                            1
 UP bnd       x_22                            1
 UP bnd       x_23                            1
 UP bnd       x_24                            1
 UP bnd       x_25                            1
ENDATA
